NAME : TSP_INST.26132.tour
COMMENT : Length = 26132
COMMENT : Found by LKH [Keld Helsgaun] Sat Oct 18 14:36:39 2025
TYPE : TOUR
DIMENSION : 150
TOUR_SECTION
1
53
40
12
49
18
29
142
46
125
137
24
117
32
132
61
26
7
82
78
9
37
120
16
135
146
127
51
63
44
66
48
103
128
84
11
52
150
87
96
144
97
136
81
45
33
100
74
57
36
14
141
99
10
92
19
105
93
143
4
116
60
140
69
3
73
118
59
41
89
122
21
30
68
2
35
23
102
70
111
76
121
139
131
129
94
123
91
95
50
133
86
43
5
119
56
101
28
39
38
71
124
72
126
83
62
138
113
108
114
145
109
98
148
88
58
34
90
25
17
106
8
112
22
75
134
54
6
149
104
80
77
115
107
130
65
147
31
47
67
55
42
64
20
110
79
13
15
27
85
-1
EOF
